10-1559 10
10-1560 10
10-1561 10
10-1562 10
10-1563 10
10-1564 10
10-1565 10
10-1566 10
10-1567 10
10-1568 10
10-1569 10
10-1570 10
10-1571 10
10-1572 10
10-1573 10
10-1574 10
10-1575 10
10-1576 10
10-1577 10
10-1578 10
10-1579 10
10-1580 10
10-1581 10
10-1582 10
10-1583 10
10-1584 10
10-1585 10
10-1586 10
10-1587 10
10-1588 10
10-1589 10
10-1590 10
10-1591 10
10-1592 10
10-1593 10
10-1594 10
10-1595 10
10-1596 10
10-1597 10
10-1598 10
10-1599 10
10-1600 10
10-1601 10
10-1602 10
10-1603 10
10-1604 10
10-1605 10
102-10239 102
102-10240 102
102-10241 102
102-10242 102
102-10243 102
102-10244 102
102-10245 102
102-10246 102
102-10247 102
102-10248 102
102-10249 102
102-10250 102
102-10251 102
102-10252 102
102-10253 102
102-10254 102
102-10255 102
102-10256 102
102-10257 102
102-10258 102
102-10259 102
102-10260 102
102-10261 102
102-10262 102
102-10263 102
102-10264 102
102-10265 102
102-10266 102
102-10267 102
102-10268 102
102-10269 102
102-10270 102
108-10890 108
108-10891 108
108-10892 108
108-10893 108
108-10894 108
108-10895 108
108-10896 108
108-10897 108
108-10898 108
108-10899 108
108-10900 108
108-10901 108
108-10902 108
108-10903 108
108-10904 108
108-10905 108
108-10906 108
108-10907 108
108-10908 108
108-10909 108
108-10910 108
108-10911 108
108-10912 108
108-10913 108
108-10914 108
108-10915 108
108-10916 108
108-10917 108
108-10918 108
108-10919 108
108-10920 108
108-10921 108
108-10922 108
108-10923 108
108-10924 108
108-10925 108
108-10926 108
108-10927 108
108-10928 108
108-10929 108
108-10930 108
108-10931 108
108-10932 108
108-10933 108
108-10934 108
108-10935 108
108-10936 108
108-10937 108
108-10938 108
108-10939 108
108-10940 108
108-10941 108
108-10942 108
108-10943 108
108-10944 108
108-10945 108
108-10946 108
108-10947 108
108-10948 108
108-10949 108
108-10950 108
108-10951 108
108-10952 108
108-10953 108
108-10954 108
108-10955 108
108-10956 108
111-10976 111
111-10977 111
111-10978 111
111-10979 111
111-10980 111
111-10981 111
111-10982 111
111-10983 111
111-10984 111
111-10985 111
111-10986 111
111-10987 111
111-10988 111
111-10989 111
111-10990 111
111-10991 111
111-10992 111
111-10993 111
111-10994 111
111-10995 111
111-10996 111
111-10997 111
111-10998 111
111-10999 111
111-11000 111
111-11001 111
111-11002 111
111-11003 111
111-11004 111
111-11005 111
111-11006 111
111-11007 111
111-11008 111
111-11009 111
111-11010 111
111-11011 111
111-11012 111
111-11013 111
111-11014 111
111-11015 111
111-11016 111
111-11017 111
111-11018 111
111-11019 111
111-11020 111
111-11021 111
111-11022 111
111-11023 111
111-11024 111
111-11025 111
111-11026 111
111-11027 111
111-11028 111
111-11029 111
111-11030 111
111-11031 111
111-11032 111
111-11033 111
111-11034 111
111-11035 111
111-11036 111
111-11037 111
111-11038 111
111-11039 111
111-11040 111
111-11041 111
111-11042 111
111-11043 111
111-11044 111
111-11045 111
111-11046 111
111-11047 111
111-11048 111
111-11049 111
111-11050 111
111-11051 111
111-11052 111
111-11053 111
111-11054 111
111-11055 111
111-11056 111
111-11057 111
111-11058 111
111-11059 111
111-11060 111
111-11061 111
111-11062 111
111-11063 111
111-11064 111
111-11065 111
111-11066 111
111-11067 111
111-11068 111
111-11069 111
111-11070 111
111-11071 111
111-11072 111
111-11073 111
111-11074 111
111-11075 111
111-11076 111
111-11077 111
111-11078 111
111-11079 111
111-11080 111
111-11081 111
111-11082 111
111-11083 111
111-11084 111
111-11085 111
111-11086 111
111-11087 111
111-11088 111
111-11089 111
111-11090 111
111-11091 111
111-11092 111
111-11093 111
111-11094 111
111-11095 111
111-11096 111
111-11097 111
111-11098 111
111-11099 111
111-11100 111
111-11101 111
111-11102 111
111-11103 111
111-11104 111
111-11105 111
111-11106 111
111-11107 111
111-11108 111
111-11109 111
111-11110 111
111-11111 111
111-11112 111
111-11113 111
111-11114 111
111-11115 111
111-11116 111
111-11117 111
111-11118 111
111-11119 111
111-11120 111
111-11121 111
111-11122 111
111-11123 111
111-11124 111
111-11125 111
111-11126 111
111-11127 111
111-11128 111
111-11129 111
111-11130 111
111-11131 111
111-11132 111
111-11133 111
111-11134 111
111-11135 111
111-11136 111
111-11137 111
111-11138 111
111-11139 111
111-11140 111
111-11141 111
111-11142 111
111-11143 111
111-11144 111
111-11145 111
111-11146 111
111-11147 111
111-11148 111
111-11149 111
111-11150 111
111-11151 111
111-11152 111
111-11153 111
111-11154 111
111-11155 111
111-11156 111
111-11157 111
111-11158 111
111-11159 111
111-11160 111
111-11161 111
111-11162 111
111-11163 111
111-11164 111
111-11165 111
111-11166 111
111-11167 111
111-11168 111
111-11169 111
111-11170 111
111-11171 111
111-11172 111
111-11173 111
111-11174 111
111-11175 111
111-11176 111
111-11177 111
111-11178 111
111-11179 111
111-11180 111
111-11181 111
111-11182 111
111-11183 111
111-11184 111
111-11185 111
111-11186 111
111-11187 111
111-11188 111
111-11189 111
111-11190 111
111-11191 111
111-11192 111
111-11193 111
111-11194 111
111-11195 111
111-11196 111
111-11197 111
111-11198 111
111-11199 111
111-11200 111
111-11201 111
111-11202 111
111-11203 111
111-11204 111
111-11205 111
111-11206 111
111-11207 111
111-11208 111
111-11209 111
111-11210 111
111-11211 111
111-11212 111
111-11213 111
111-11214 111
111-11215 111
111-11216 111
111-11217 111
111-11218 111
111-11219 111
111-11220 111
111-11221 111
111-11222 111
111-11223 111
111-11224 111
111-11225 111
111-11226 111
111-11227 111
111-11228 111
111-11229 111
111-11230 111
111-11231 111
111-11232 111
111-11233 111
111-11234 111
111-11235 111
111-11236 111
111-11237 111
111-11238 111
111-11239 111
111-11240 111
111-11241 111
111-11242 111
111-11243 111
111-11244 111
111-11248 111
112-11245 112
112-11246 112
112-11247 112
112-11249 112
112-11250 112
112-11251 112
112-11252 112
112-11253 112
112-11254 112
112-11255 112
112-11256 112
112-11257 112
112-11258 112
112-11259 112
112-11260 112
112-11261 112
112-11262 112
112-11263 112
112-11264 112
112-11265 112
112-11266 112
112-11267 112
112-11268 112
112-11269 112
112-11270 112
112-11271 112
112-11272 112
112-11273 112
112-11274 112
112-11275 112
112-11276 112
112-11277 112
112-11278 112
112-11279 112
112-11280 112
112-11281 112
112-11282 112
112-11283 112
112-11284 112
112-11285 112
112-11286 112
112-11287 112
112-11288 112
112-11289 112
112-11290 112
112-11291 112
112-11292 112
112-11293 112
112-11294 112
112-11295 112
112-11296 112
112-11297 112
112-11298 112
112-11299 112
112-11300 112
112-11301 112
112-11302 112
112-11303 112
112-11304 112
112-11305 112
112-11306 112
112-11307 112
112-11308 112
112-11309 112
112-11310 112
112-11311 112
112-11312 112
112-11313 112
112-11314 112
112-11315 112
112-11316 112
112-11317 112
112-11318 112
112-11319 112
112-11320 112
112-11321 112
112-11322 112
112-11323 112
112-11324 112
112-11325 112
112-11326 112
112-11327 112
112-11328 112
112-11329 112
112-11330 112
112-11331 112
112-11332 112
112-11333 112
112-11334 112
112-11335 112
112-11336 112
112-11337 112
112-11338 112
112-11339 112
112-11340 112
112-11341 112
112-11342 112
112-11343 112
112-11344 112
112-11345 112
112-11346 112
112-11347 112
112-11348 112
112-11349 112
112-11350 112
112-11351 112
112-11352 112
112-11353 112
112-11354 112
112-11355 112
112-11356 112
112-11357 112
112-11358 112
112-11359 112
112-11360 112
112-11361 112
112-11362 112
112-11363 112
112-11364 112
112-11365 112
112-11366 112
112-11367 112
112-11368 112
112-11369 112
112-11370 112
112-11371 112
112-11372 112
112-11373 112
112-11374 112
112-11375 112
112-11376 112
112-11377 112
112-11378 112
112-11379 112
112-11380 112
112-11381 112
112-11382 112
112-11383 112
112-11384 112
112-11385 112
112-11386 112
112-11387 112
112-11388 112
112-11389 112
112-11390 112
112-11391 112
112-11392 112
112-11393 112
112-11394 112
112-11395 112
112-11396 112
112-11397 112
112-11398 112
112-11399 112
112-11400 112
112-11401 112
112-11402 112
112-11403 112
112-11404 112
112-11405 112
112-11406 112
112-11407 112
112-11408 112
112-11409 112
112-11410 112
112-11411 112
112-11412 112
112-11413 112
112-11414 112
112-11415 112
112-11416 112
112-11417 112
112-11418 112
112-11419 112
112-11420 112
112-11421 112
112-11422 112
112-11423 112
112-11424 112
112-11425 112
112-11426 112
112-11427 112
112-11428 112
112-11429 112
112-11430 112
112-11431 112
112-11432 112
112-11433 112
112-11434 112
112-11435 112
112-11436 112
112-11437 112
112-11438 112
112-11439 112
112-11440 112
112-11441 112
112-11442 112
112-11443 112
112-11444 112
112-11445 112
112-11446 112
112-11447 112
112-11448 112
112-11449 112
112-11450 112
112-11451 112
112-11452 112
112-11453 112
112-11454 112
112-11455 112
112-11456 112
112-11457 112
112-11458 112
112-11459 112
115-11753 115
115-11754 115
115-11755 115
115-11756 115
115-11757 115
115-11758 115
115-11759 115
115-11760 115
115-11761 115
115-11762 115
115-11763 115
115-11764 115
115-11765 115
115-11766 115
115-11767 115
115-11768 115
115-11769 115
115-11770 115
115-11771 115
115-11772 115
115-11773 115
115-11774 115
115-11775 115
115-11776 115
115-11777 115
117-11784 117
117-11785 117
117-11786 117
117-11787 117
117-11788 117
117-11789 117
117-11790 117
117-11791 117
117-11792 117
117-11793 117
117-11794 117
117-11795 117
117-11796 117
117-11797 117
117-11798 117
117-11799 117
117-11800 117
117-11801 117
117-11802 117
117-11803 117
117-11804 117
117-11805 117
117-11806 117
117-11807 117
117-11808 117
117-11809 117
117-11810 117
117-11811 117
117-11812 117
117-11813 117
117-11814 117
117-11815 117
117-11816 117
117-11817 117
117-11818 117
117-11819 117
117-11820 117
117-11821 117
117-11822 117
117-11823 117
117-11824 117
117-11825 117
117-11826 117
117-11827 117
117-11828 117
117-11829 117
117-11830 117
117-11831 117
117-11832 117
117-11833 117
117-11834 117
117-11835 117
117-11836 117
117-11837 117
117-11838 117
117-11839 117
117-11840 117
117-11841 117
117-11842 117
117-11843 117
117-11844 117
117-11845 117
117-11846 117
117-11847 117
117-11848 117
117-11849 117
117-11850 117
117-11851 117
117-11852 117
117-11853 117
117-11854 117
117-11855 117
117-11856 117
117-11857 117
117-11858 117
117-11859 117
117-11860 117
117-11861 117
117-11862 117
117-11863 117
117-11864 117
117-11865 117
117-11866 117
117-11867 117
117-11868 117
117-11869 117
117-11870 117
117-11871 117
117-11872 117
117-11873 117
117-11874 117
117-11875 117
117-11876 117
117-11877 117
117-11878 117
117-11879 117
117-11880 117
117-11881 117
117-11882 117
117-11883 117
117-11884 117
117-11885 117
117-11886 117
117-11887 117
117-11888 117
117-11889 117
117-11890 117
117-11891 117
117-11892 117
117-11893 117
117-11894 117
117-11895 117
117-11896 117
117-11897 117
117-11898 117
117-11899 117
117-11900 117
117-11901 117
117-11902 117
117-11903 117
117-11904 117
117-11905 117
117-11906 117
117-11907 117
117-11908 117
117-11909 117
117-11910 117
117-11911 117
117-11912 117
117-11913 117
117-11914 117
117-11915 117
117-11916 117
117-11917 117
117-11918 117
117-11919 117
117-11920 117
117-11921 117
117-11922 117
117-11923 117
117-11924 117
117-11925 117
117-11926 117
117-11927 117
117-11928 117
117-11929 117
117-11930 117
117-11931 117
123-12651 123
123-12652 123
123-12653 123
123-12654 123
123-12655 123
123-12656 123
123-12657 123
123-12658 123
123-12659 123
123-12660 123
123-12661 123
123-12662 123
123-12663 123
123-12664 123
123-12666 123
125-12695 125
125-12696 125
125-12697 125
125-12698 125
125-12699 125
125-12700 125
125-12701 125
125-12702 125
125-12703 125
125-12704 125
125-12705 125
125-12706 125
125-12707 125
125-12708 125
125-12709 125
125-12710 125
125-12711 125
125-12712 125
125-12713 125
125-12714 125
125-12715 125
125-12716 125
125-12717 125
125-12718 125
125-12719 125
125-12720 125
125-12721 125
125-12722 125
125-12723 125
125-12724 125
125-12725 125
125-12726 125
125-12727 125
125-12728 125
125-12729 125
125-12730 125
125-12731 125
125-12732 125
125-12733 125
125-12734 125
125-12735 125
125-12736 125
125-12737 125
125-12738 125
125-12739 125
125-12740 125
125-12741 125
125-12742 125
125-12743 125
125-12744 125
125-12745 125
125-12746 125
125-12747 125
125-12748 125
125-12749 125
125-12750 125
125-12751 125
125-12752 125
125-12753 125
125-12754 125
125-12755 125
125-12756 125
125-12757 125
125-12758 125
125-12759 125
125-12760 125
125-12761 125
125-12762 125
125-12763 125
125-12764 125
125-12765 125
125-12766 125
125-12767 125
125-12768 125
125-12769 125
125-12770 125
125-12771 125
125-12772 125
125-12773 125
125-12774 125
125-12775 125
125-12776 125
125-12777 125
125-12778 125
125-12779 125
125-12780 125
125-12781 125
125-12782 125
125-12783 125
125-12784 125
125-12785 125
125-12786 125
125-12787 125
125-12788 125
125-12789 125
125-12790 125
125-12791 125
125-12792 125
125-12793 125
125-12794 125
125-12795 125
125-12796 125
125-12797 125
125-12798 125
125-12799 125
125-12800 125
125-12801 125
125-12802 125
125-12803 125
125-12804 125
125-12805 125
125-12806 125
125-12807 125
125-12808 125
125-12809 125
125-12810 125
17-2371 17
17-2372 17
17-2373 17
17-2374 17
17-2375 17
17-2376 17
17-2377 17
17-2378 17
17-2379 17
17-2380 17
17-2381 17
17-2382 17
17-2383 17
17-2384 17
17-2385 17
17-2386 17
17-2387 17
17-2388 17
17-2389 17
17-2390 17
17-2392 17
19-2592 19
2-178 2
2-183 2
2-184 2
2-185 2
2-186 2
2-187 2
2-188 2
2-189 2
2-190 2
2-191 2
2-192 2
2-193 2
2-194 2
2-195 2
2-196 2
2-197 2
2-213 2
2-215 2
2-218 2
2-219 2
2-221 2
2-223 2
2-225 2
2-227 2
2-229 2
2-231 2
2-233 2
2-235 2
2-237 2
2-239 2
2-241 2
2-243 2
2-245 2
2-247 2
2-249 2
2-251 2
2-253 2
2-256 2
2-257 2
2-258 2
2-259 2
2-260 2
2-261 2
2-262 2
2-263 2
2-264 2
2-265 2
2-266 2
2-267 2
2-268 2
2-269 2
2-270 2
2-271 2
2-272 2
2-273 2
2-294 2
2-295 2
2-296 2
2-297 2
2-298 2
2-299 2
2-300 2
2-301 2
2-302 2
2-303 2
2-304 2
2-305 2
2-306 2
2-307 2
2-308 2
2-309 2
2-310 2
2-311 2
2-312 2
2-313 2
2-314 2
2-315 2
2-316 2
2-317 2
2-318 2
2-319 2
2-320 2
2-321 2
2-322 2
2-323 2
2-324 2
2-325 2
2-326 2
2-327 2
2-328 2
2-329 2
2-330 2
2-331 2
2-332 2
2-333 2
2-334 2
2-335 2
2-336 2
2-337 2
2-338 2
2-367 2
2-368 2
2-369 2
2-370 2
2-371 2
2-372 2
2-373 2
2-374 2
2-375 2
2-376 2
2-377 2
2-378 2
2-379 2
2-380 2
2-381 2
2-382 2
2-383 2
2-384 2
2-385 2
2-386 2
2-387 2
2-388 2
2-389 2
2-390 2
2-391 2
2-392 2
2-393 2
2-394 2
2-395 2
2-396 2
2-397 2
2-398 2
2-399 2
2-400 2
2-401 2
2-402 2
2-403 2
2-404 2
2-405 2
2-406 2
2-407 2
2-408 2
2-409 2
2-410 2
2-411 2
2-412 2
2-413 2
2-414 2
2-415 2
2-416 2
2-417 2
2-418 2
2-419 2
2-420 2
2-421 2
2-422 2
2-423 2
2-424 2
2-425 2
2-426 2
2-427 2
2-428 2
2-429 2
2-430 2
2-431 2
2-432 2
2-433 2
2-434 2
2-435 2
2-436 2
2-437 2
2-438 2
2-439 2
2-440 2
2-441 2
2-442 2
2-443 2
2-444 2
2-445 2
2-446 2
2-447 2
2-448 2
2-449 2
2-450 2
2-451 2
2-452 2
2-453 2
2-454 2
2-455 2
2-456 2
2-457 2
2-458 2
2-459 2
2-461 2
2-463 2
2-466 2
2-468 2
2-469 2
2-470 2
2-471 2
2-473 2
2-474 2
2-476 2
2-478 2
2-480 2
2-482 2
2-484 2
2-485 2
2-487 2
2-489 2
2-490 2
2-492 2
2-494 2
2-513 2
2-514 2
2-515 2
2-516 2
2-517 2
2-518 2
2-519 2
2-520 2
2-521 2
2-522 2
2-523 2
2-524 2
2-525 2
2-526 2
2-527 2
2-528 2
2-529 2
2-531 2
2-532 2
2-533 2
2-534 2
2-535 2
2-538 2
2-541 2
2-544 2
2-547 2
2-548 2
2-549 2
2-550 2
2-551 2
2-552 2
2-553 2
2-555 2
2-556 2
2-558 2
2-559 2
30-3515 30
30-3516 30
30-3517 30
30-3518 30
30-3519 30
30-3520 30
30-3521 30
30-3522 30
30-3523 30
30-3524 30
30-3525 30
30-3526 30
30-3527 30
30-3528 30
30-3529 30
30-3530 30
30-3531 30
30-3532 30
30-3533 30
30-3534 30
30-3535 30
30-3536 30
30-3537 30
30-3538 30
30-3539 30
30-3540 30
30-3541 30
30-3542 30
30-3543 30
30-3544 30
30-3545 30
30-3546 30
30-3547 30
30-3548 30
30-3549 30
30-3550 30
30-3551 30
30-3552 30
30-3553 30
30-3554 30
30-3555 30
30-3556 30
30-3557 30
30-3558 30
30-3559 30
30-3560 30
30-3561 30
30-3562 30
30-3563 30
30-3564 30
33-3673 33
33-3674 33
33-3675 33
33-3676 33
33-3677 33
33-3678 33
33-3679 33
33-3680 33
33-3681 33
33-3683 33
35-3953 35
37-3966 37
37-3967 37
37-3968 37
37-3969 37
37-3970 37
37-3971 37
37-3972 37
37-3973 37
37-3974 37
37-3975 37
37-3976 37
37-3977 37
37-3978 37
37-3979 37
37-3980 37
37-3981 37
37-3982 37
37-3983 37
37-3984 37
37-3985 37
37-3986 37
37-3987 37
37-3988 37
37-3989 37
37-3990 37
37-3991 37
37-3992 37
37-3993 37
37-3994 37
37-3995 37
37-3996 37
37-3997 37
37-3998 37
37-3999 37
37-4000 37
37-4001 37
37-4002 37
37-4003 37
37-4004 37
37-4005 37
37-4006 37
37-4007 37
37-4008 37
37-4009 37
37-4010 37
37-4011 37
37-4012 37
37-4013 37
37-4014 37
37-4015 37
37-4016 37
37-4017 37
37-4018 37
37-4019 37
37-4020 37
37-4021 37
37-4022 37
37-4023 37
37-4024 37
37-4025 37
37-4026 37
37-4027 37
37-4028 37
37-4029 37
37-4030 37
37-4031 37
37-4032 37
37-4033 37
37-4034 37
37-4035 37
37-4036 37
37-4037 37
37-4038 37
37-4039 37
37-4040 37
37-4041 37
37-4042 37
37-4043 37
37-4044 37
37-4045 37
37-4046 37
37-4047 37
37-4048 37
37-4049 37
37-4050 37
37-4051 37
37-4052 37
37-4053 37
37-4054 37
37-4055 37
37-4056 37
37-4057 37
37-4058 37
37-4059 37
37-4060 37
37-4061 37
37-4062 37
37-4063 37
37-4064 37
37-4065 37
37-4066 37
37-4067 37
37-4068 37
37-4069 37
37-4070 37
37-4071 37
37-4072 37
37-4073 37
37-4074 37
37-4075 37
37-4076 37
37-4077 37
37-4078 37
37-4079 37
37-4080 37
37-4081 37
37-4082 37
37-4083 37
37-4084 37
37-4085 37
37-4086 37
37-4087 37
37-4088 37
37-4089 37
37-4090 37
37-4091 37
37-4092 37
37-4093 37
37-4094 37
37-4095 37
37-4096 37
37-4097 37
37-4098 37
37-4099 37
37-4100 37
37-4101 37
37-4102 37
37-4103 37
37-4104 37
37-4105 37
37-4106 37
37-4107 37
37-4108 37
37-4109 37
37-4110 37
37-4111 37
37-4112 37
37-4113 37
37-4114 37
37-4115 37
37-4116 37
37-4117 37
37-4118 37
37-4119 37
37-4120 37
37-4121 37
37-4122 37
37-4123 37
37-4124 37
37-4125 37
37-4126 37
37-4127 37
37-4128 37
37-4129 37
37-4130 37
37-4131 37
37-4132 37
37-4133 37
37-4134 37
37-4135 37
37-4136 37
37-4137 37
37-4138 37
37-4139 37
37-4140 37
37-4141 37
37-4142 37
37-4143 37
37-4144 37
37-4145 37
37-4146 37
37-4147 37
37-4148 37
37-4149 37
37-4150 37
37-4151 37
37-4152 37
37-4153 37
37-4154 37
37-4155 37
37-4156 37
37-4157 37
37-4158 37
37-4159 37
37-4160 37
37-4161 37
37-4162 37
37-4163 37
37-4164 37
37-4165 37
37-4166 37
37-4167 37
37-4168 37
37-4169 37
37-4170 37
37-4171 37
37-4172 37
37-4173 37
37-4174 37
37-4175 37
37-4176 37
37-4177 37
37-4178 37
37-4179 37
37-4180 37
37-4181 37
37-4182 37
37-4183 37
37-4184 37
37-4185 37
37-4186 37
37-4187 37
37-4188 37
37-4189 37
37-4190 37
37-4191 37
37-4192 37
37-4193 37
37-4194 37
37-4195 37
37-4196 37
37-4197 37
37-4198 37
37-4199 37
37-4200 37
37-4201 37
37-4202 37
37-4203 37
37-4204 37
37-4205 37
37-4206 37
37-4207 37
37-4208 37
37-4209 37
37-4210 37
37-4211 37
37-4212 37
37-4213 37
37-4214 37
37-4215 37
37-4216 37
37-4217 37
37-4218 37
37-4219 37
37-4220 37
37-4221 37
37-4222 37
37-4223 37
37-4224 37
37-4225 37
37-4226 37
37-4227 37
37-4228 37
37-4229 37
37-4230 37
40-4536 40
40-4537 40
41-4538 41
41-4539 41
41-4540 41
41-4541 41
41-4542 41
41-4543 41
41-4544 41
41-4545 41
41-4546 41
41-4547 41
41-4548 41
41-4549 41
41-4550 41
41-4551 41
41-4552 41
41-4553 41
41-4554 41
41-4555 41
41-4556 41
41-4557 41
41-4558 41
41-4559 41
41-4560 41
41-4561 41
41-4562 41
41-4563 41
41-4564 41
41-4565 41
41-4566 41
41-4567 41
41-4568 41
41-4569 41
41-4570 41
41-4571 41
41-4572 41
41-4573 41
41-4574 41
41-4575 41
41-4576 41
41-4577 41
41-4578 41
41-4579 41
41-4580 41
41-4581 41
41-4582 41
41-4583 41
41-4584 41
41-4585 41
41-4586 41
44-4898 44
44-4899 44
44-4900 44
44-4901 44
44-4902 44
44-4903 44
44-4904 44
44-4905 44
44-4906 44
44-4907 44
44-4908 44
44-4909 44
44-4910 44
44-4911 44
44-4912 44
44-4913 44
44-4914 44
44-4915 44
44-4916 44
44-4917 44
44-4918 44
44-4919 44
44-4920 44
44-4921 44
44-4922 44
44-4923 44
44-4924 44
44-4925 44
44-4926 44
44-4927 44
44-4928 44
44-4929 44
44-4930 44
44-4931 44
44-4932 44
44-4933 44
44-4934 44
44-4935 44
44-4936 44
44-4937 44
44-4938 44
44-4939 44
44-4940 44
44-4941 44
44-4942 44
44-4943 44
44-4944 44
44-4945 44
44-4946 44
44-4947 44
44-4948 44
44-4949 44
44-4950 44
44-4951 44
44-4952 44
44-4953 44
44-4954 44
44-4955 44
44-4956 44
44-4957 44
44-4958 44
44-4959 44
44-4960 44
44-4961 44
44-4962 44
44-4963 44
44-4964 44
44-4965 44
44-4966 44
44-4967 44
44-4968 44
44-4969 44
44-4970 44
44-4971 44
44-4972 44
44-4973 44
44-4974 44
44-4975 44
44-4976 44
44-4977 44
44-4978 44
44-4979 44
44-4980 44
44-4981 44
44-4982 44
44-4983 44
44-4984 44
44-4985 44
44-4986 44
44-4987 44
44-4988 44
44-4989 44
44-4990 44
44-4991 44
44-4992 44
44-4993 44
44-4994 44
44-4995 44
44-4996 44
44-4997 44
44-4998 44
44-4999 44
44-5000 44
44-5001 44
44-5002 44
44-5003 44
44-5004 44
44-5005 44
44-5006 44
44-5007 44
44-5008 44
44-5009 44
44-5010 44
44-5011 44
44-5012 44
44-5013 44
44-5014 44
44-5015 44
44-5016 44
44-5017 44
44-5018 44
44-5019 44
44-5020 44
44-5021 44
44-5022 44
44-5023 44
44-5024 44
44-5025 44
44-5026 44
44-5027 44
44-5028 44
44-5029 44
44-5030 44
44-5031 44
44-5032 44
44-5033 44
44-5034 44
44-5035 44
44-5036 44
44-5037 44
44-5038 44
44-5039 44
44-5040 44
44-5041 44
44-5042 44
44-5043 44
44-5044 44
44-5045 44
44-5046 44
44-5047 44
44-5048 44
44-5049 44
44-5050 44
44-5051 44
44-5052 44
44-5053 44
44-5054 44
44-5055 44
44-5056 44
44-5057 44
44-5058 44
44-5059 44
44-5060 44
44-5061 44
44-5062 44
44-5063 44
44-5064 44
44-5065 44
44-5066 44
44-5067 44
44-5068 44
44-5069 44
44-5070 44
44-5071 44
44-5072 44
44-5073 44
44-5074 44
44-5075 44
44-5076 44
44-5077 44
44-5078 44
44-5079 44
44-5080 44
44-5081 44
44-5082 44
44-5083 44
44-5084 44
44-5085 44
44-5086 44
44-5087 44
44-5088 44
44-5089 44
44-5090 44
44-5091 44
44-5092 44
44-5093 44
44-5094 44
44-5095 44
44-5096 44
44-5097 44
44-5098 44
44-5099 44
44-5100 44
44-5101 44
44-5102 44
44-5103 44
44-5104 44
44-5105 44
44-5106 44
44-5107 44
44-5108 44
44-5109 44
44-5110 44
44-5111 44
44-5112 44
44-5113 44
44-5114 44
44-5115 44
44-5116 44
44-5117 44
44-5118 44
44-5119 44
44-5120 44
44-5121 44
44-5122 44
44-5123 44
44-5124 44
44-5125 44
44-5126 44
44-5127 44
44-5128 44
44-5129 44
44-5130 44
44-5131 44
44-5132 44
44-5133 44
44-5134 44
44-5135 44
44-5136 44
44-5137 44
44-5138 44
44-5139 44
44-5140 44
44-5141 44
44-5142 44
44-5143 44
44-5144 44
44-5145 44
44-5146 44
44-5147 44
44-5148 44
44-5149 44
44-5150 44
44-5151 44
44-5152 44
44-5153 44
50-5523 50
50-5524 50
50-5525 50
50-5526 50
50-5527 50
50-5528 50
50-5529 50
72-7240 72
72-7242 72
72-7243 72
72-7244 72
72-7245 72
72-7246 72
72-7247 72
72-7248 72
72-7249 72
72-7250 72
72-7251 72
72-7252 72
72-7253 72
72-7254 72
72-7255 72
72-7256 72
72-7257 72
72-7258 72
72-7259 72
72-7260 72
72-7261 72
72-7262 72
72-7263 72
72-7264 72
72-7265 72
72-7266 72
72-7267 72
72-7268 72
72-7269 72
72-7270 72
72-7271 72
72-7272 72
72-7273 72
72-7274 72
72-7275 72
72-7276 72
72-7277 72
72-7278 72
72-7279 72
72-7280 72
72-7281 72
72-7282 72
72-7283 72
72-7284 72
72-7285 72
72-7286 72
72-7287 72
72-7288 72
72-7289 72
72-7290 72
72-7291 72
72-7292 72
72-7293 72
72-7294 72
72-7295 72
72-7296 72
72-7297 72
72-7298 72
72-7299 72
72-7300 72
72-7301 72
72-7302 72
72-7303 72
72-7304 72
72-7305 72
72-7306 72
72-7307 72
72-7308 72
72-7309 72
72-7310 72
72-7311 72
72-7312 72
72-7313 72
72-7314 72
72-7315 72
72-7316 72
72-7317 72
72-7318 72
72-7319 72
72-7320 72
72-7321 72
72-7322 72
72-7323 72
72-7324 72
72-7325 72
72-7326 72
72-7327 72
72-7328 72
72-7329 72
72-7330 72
72-7331 72
74-7335 74
74-7336 74
74-7337 74
74-7338 74
74-7339 74
74-7340 74
74-7341 74
74-7342 74
74-7343 74
74-7344 74
74-7345 74
74-7346 74
74-7347 74
74-7348 74
74-7349 74
74-7350 74
74-7351 74
74-7352 74
74-7353 74
74-7354 74
74-7355 74
74-7356 74
74-7357 74
74-7358 74
74-7359 74
74-7360 74
74-7361 74
74-7362 74
74-7363 74
74-7364 74
74-7365 74
74-7366 74
74-7367 74
74-7368 74
74-7369 74
74-7370 74
74-7371 74
74-7372 74
74-7373 74
74-7374 74
74-7375 74
74-7376 74
74-7377 74
74-7378 74
74-7379 74
74-7380 74
74-7381 74
74-7382 74
74-7383 74
74-7384 74
74-7385 74
74-7386 74
74-7387 74
74-7388 74
74-7389 74
74-7390 74
74-7391 74
74-7392 74
74-7393 74
74-7394 74
74-7395 74
74-7396 74
74-7397 74
74-7398 74
74-7399 74
74-7400 74
74-7401 74
74-7402 74
74-7403 74
74-7404 74
74-7405 74
74-7406 74
74-7407 74
74-7408 74
74-7409 74
74-7410 74
74-7411 74
74-7412 74
74-7413 74
74-7414 74
74-7415 74
74-7416 74
74-7417 74
74-7418 74
74-7419 74
74-7420 74
74-7421 74
74-7422 74
74-7423 74
74-7424 74
74-7425 74
74-7426 74
74-7427 74
74-7428 74
74-7429 74
74-7430 74
74-7431 74
74-7432 74
74-7433 74
74-7434 74
74-7435 74
74-7436 74
74-7437 74
74-7438 74
74-7439 74
74-7440 74
74-7441 74
74-7442 74
74-7443 74
74-7444 74
74-7445 74
74-7446 74
74-7447 74
74-7448 74
74-7449 74
74-7450 74
74-7451 74
74-7452 74
74-7453 74
74-7454 74
74-7455 74
74-7456 74
74-7457 74
74-7458 74
74-7459 74
74-7460 74
74-7461 74
74-7462 74
74-7463 74
74-7464 74
74-7465 74
74-7466 74
74-7467 74
74-7468 74
74-7469 74
74-7470 74
74-7471 74
74-7472 74
74-7473 74
74-7474 74
74-7475 74
74-7476 74
74-7477 74
74-7478 74
74-7479 74
74-7480 74
74-7481 74
74-7482 74
74-7483 74
74-7484 74
74-7485 74
74-7486 74
74-7487 74
74-7488 74
74-7489 74
74-7490 74
74-7491 74
74-7492 74
74-7493 74
74-7494 74
74-7495 74
74-7496 74
74-7497 74
74-7498 74
74-7499 74
74-7500 74
74-7501 74
74-7502 74
74-7503 74
74-7504 74
74-7505 74
74-7506 74
74-7507 74
74-7508 74
74-7509 74
74-7510 74
74-7511 74
74-7512 74
74-7513 74
74-7514 74
74-7515 74
74-7516 74
74-7517 74
74-7518 74
74-7519 74
74-7520 74
74-7521 74
74-7522 74
74-7523 74
74-7524 74
74-7525 74
74-7526 74
74-7527 74
74-7528 74
74-7529 74
74-7530 74
74-7531 74
74-7532 74
74-7533 74
74-7534 74
74-7535 74
74-7536 74
74-7537 74
74-7538 74
74-7539 74
74-7540 74
74-7541 74
74-7542 74
74-7543 74
74-7544 74
74-7545 74
74-7546 74
74-7547 74
74-7548 74
74-7549 74
74-7550 74
74-7551 74
74-7552 74
74-7553 74
74-7554 74
74-7555 74
74-7556 74
74-7557 74
74-7558 74
74-7559 74
74-7560 74
74-7561 74
74-7562 74
74-7563 74
74-7564 74
74-7565 74
74-7566 74
74-7567 74
74-7568 74
74-7569 74
74-7570 74
74-7571 74
74-7572 74
74-7573 74
74-7574 74
74-7575 74
74-7576 74
74-7577 74
74-7578 74
74-7579 74
74-7580 74
74-7581 74
74-7582 74
74-7583 74
74-7584 74
74-7585 74
74-7586 74
74-7587 74
74-7588 74
74-7589 74
74-7590 74
74-7591 74
74-7592 74
74-7593 74
74-7594 74
74-7597 74
8-1263 8
8-1264 8
8-1265 8
8-1266 8
8-1267 8
8-1268 8
8-1269 8
8-1270 8
8-1271 8
8-1272 8
8-1273 8
8-1274 8
8-1275 8
8-1276 8
8-1277 8
8-1278 8
8-1279 8
8-1280 8
8-1281 8
8-1282 8
8-1283 8
8-1284 8
8-1285 8
8-1286 8
8-1287 8
8-1288 8
8-1289 8
8-1290 8
8-1291 8
8-1292 8
8-1293 8
8-1294 8
8-1295 8
8-1296 8
8-1297 8
8-1298 8
8-1299 8
8-1300 8
8-1301 8
8-1302 8
8-1303 8
8-1304 8
8-1305 8
8-1306 8
8-1307 8
8-1308 8
8-1309 8
8-1310 8
8-1311 8
8-1312 8
8-1313 8
8-1314 8
8-1315 8
8-1316 8
8-1317 8
8-1318 8
8-1319 8
8-1320 8
8-1321 8
8-1322 8
8-1323 8
8-1324 8
8-1325 8
8-1326 8
8-1327 8
8-1328 8
8-1329 8
8-1330 8
8-1331 8
8-1332 8
8-1333 8
8-1334 8
8-1335 8
8-1336 8
8-1337 8
8-1338 8
8-1339 8
8-1340 8
8-1341 8
8-1342 8
8-1343 8
8-1344 8
8-1345 8
8-1346 8
8-1347 8
8-1348 8
8-1349 8
8-1350 8
8-1351 8
8-1352 8
8-1353 8
8-1354 8
8-1355 8
8-1356 8
8-1357 8
8-1358 8
8-1359 8
8-1360 8
8-1361 8
8-1362 8
8-1363 8
8-1364 8
8-1365 8
8-1366 8
8-1367 8
8-1368 8
8-1369 8
8-1370 8
8-1371 8
8-1372 8
8-1373 8
8-1374 8
8-1375 8
8-1376 8
8-1377 8
8-1378 8
8-1379 8
8-1380 8
8-1381 8
8-1382 8
8-1383 8
8-1384 8
8-1385 8
8-1386 8
8-1387 8
8-1388 8
8-1389 8
8-1390 8
8-1391 8
8-1392 8
8-1393 8
8-1394 8
8-1395 8
8-1396 8
8-1397 8
8-1398 8
8-1399 8
8-1400 8
8-1401 8
8-1402 8
8-1403 8
8-1404 8
8-1405 8
8-1406 8
8-1407 8
8-1408 8
8-1409 8
8-1410 8
8-1411 8
8-1412 8
8-1413 8
8-1414 8
8-1415 8
8-1416 8
8-1417 8
8-1418 8
8-1419 8
8-1420 8
8-1421 8
8-1422 8
8-1423 8
8-1424 8
8-1425 8
8-1426 8
8-1427 8
8-1428 8
8-1429 8
8-1430 8
8-1431 8
8-1432 8
8-1433 8
8-1434 8
8-1435 8
8-1436 8
8-1437 8
8-1438 8
8-1439 8
8-1440 8
8-1441 8
8-1442 8
8-1443 8
8-1444 8
8-1445 8
8-1446 8
8-1447 8
8-1448 8
8-1449 8
8-1450 8
8-1451 8
8-1452 8
8-1453 8
8-1454 8
8-1455 8
8-1456 8
8-1457 8
8-1458 8
8-1459 8
8-1460 8
8-1461 8
8-1462 8
8-1463 8
8-1464 8
8-1465 8
8-1466 8
8-1467 8
8-1468 8
8-1469 8
8-1470 8
8-1471 8
8-1472 8
8-1473 8
8-1474 8
8-1475 8
8-1476 8
8-1477 8
8-1478 8
8-1479 8
8-1480 8
8-1481 8
8-1482 8
8-1483 8
8-1484 8
8-1485 8
8-1486 8
8-1487 8
8-1488 8
8-1489 8
8-1490 8
8-1491 8
8-1492 8
8-1493 8
8-1494 8
8-1495 8
8-1496 8
8-1497 8
8-1498 8
8-1499 8
8-1500 8
8-1501 8
8-1502 8
8-1503 8
8-1504 8
8-1505 8
8-1506 8
8-1507 8
8-1508 8
8-1509 8
8-1510 8
8-1511 8
8-1512 8
8-1513 8
8-1514 8
8-1515 8
8-1516 8
8-1517 8
8-1518 8
8-1519 8
8-1520 8
8-1521 8
8-1522 8
8-1523 8
8-1524 8
80-8009 80
80-8010 80
80-8011 80
80-8012 80
80-8013 80
80-8014 80
80-8015 80
80-8016 80
80-8017 80
80-8018 80
80-8019 80
80-8020 80
80-8021 80
80-8022 80
80-8023 80
80-8024 80
80-8025 80
80-8026 80
80-8027 80
80-8028 80
80-8029 80
80-8030 80
80-8031 80
80-8032 80
80-8033 80
80-8034 80
80-8035 80
80-8036 80
80-8037 80
80-8038 80
80-8039 80
80-8040 80
80-8041 80
80-8042 80
80-8043 80
80-8044 80
80-8045 80
80-8046 80
80-8047 80
80-8048 80
80-8049 80
80-8050 80
80-8051 80
80-8052 80
80-8053 80
80-8054 80
80-8055 80
80-8056 80
80-8057 80
80-8058 80
85-8864 85
86-8865 86
86-8866 86
86-8867 86
86-8868 86
86-8869 86
86-8870 86
86-8871 86
86-8872 86
86-8873 86
86-8874 86
86-8875 86
86-8876 86
86-8877 86
86-8878 86
86-8879 86
86-8880 86
86-8881 86
86-8882 86
86-8883 86
86-8884 86
86-8885 86
86-8886 86
86-8887 86
86-8888 86
86-8889 86
86-8890 86
86-8891 86
86-8892 86
86-8893 86
86-8894 86
86-8895 86
86-8896 86
86-8897 86
86-8898 86
86-8899 86
86-8900 86
86-8901 86
86-8902 86
86-8903 86
86-8904 86
86-8905 86
86-8906 86
86-8907 86
86-8908 86
86-8909 86
86-8910 86
86-8911 86
86-8912 86
86-8913 86
86-8914 86
86-8915 86
86-8916 86
86-8917 86
86-8918 86
86-8919 86
86-8920 86
86-8921 86
86-8922 86
86-8923 86
86-8924 86
86-8925 86
86-8926 86
86-8927 86
86-8928 86
86-8929 86
86-8930 86
86-8931 86
86-8932 86
86-8933 86
86-8934 86
86-8935 86
86-8936 86
86-8937 86
86-8938 86
86-8939 86
86-8940 86
86-8941 86
86-8942 86
86-8943 86
86-8944 86
86-8945 86
86-8946 86
86-8947 86
86-8948 86
86-8949 86
86-8950 86
86-8951 86
86-8952 86
86-8953 86
86-8954 86
86-8955 86
86-8956 86
86-8957 86
86-8958 86
86-8959 86
86-8960 86
86-8961 86
86-8962 86
86-8963 86
86-8964 86
86-8965 86
86-8966 86
86-8967 86
86-8968 86
86-8969 86
86-8970 86
86-8971 86
86-8972 86
86-8973 86
86-8974 86
86-8975 86
86-8976 86
86-8977 86
86-8978 86
86-8979 86
86-8980 86
86-8981 86
86-8982 86
86-8983 86
86-8984 86
86-8985 86
86-8986 86
86-8987 86
86-8988 86
86-8989 86
86-8990 86
86-8991 86
86-8992 86
86-8993 86
86-8994 86
86-8995 86
86-8996 86
86-8997 86
86-8998 86
86-8999 86
86-9000 86
86-9001 86
86-9002 86
86-9003 86
86-9004 86
86-9005 86
86-9006 86
86-9007 86
86-9008 86
86-9009 86
86-9010 86
86-9011 86
86-9012 86
86-9013 86
86-9014 86
86-9015 86
86-9016 86
86-9017 86
86-9018 86
86-9019 86
86-9020 86
86-9021 86
86-9022 86
86-9023 86
86-9024 86
86-9025 86
86-9026 86
86-9027 86
86-9028 86
86-9029 86
86-9030 86
86-9031 86
86-9032 86
86-9033 86
86-9034 86
86-9035 86
86-9036 86
86-9037 86
86-9038 86
86-9039 86
86-9040 86
86-9041 86
86-9042 86
86-9043 86
86-9044 86
86-9045 86
86-9046 86
86-9047 86
86-9048 86
86-9049 86
86-9050 86
86-9051 86
86-9052 86
86-9053 86
86-9054 86
86-9055 86
86-9056 86
86-9057 86
86-9058 86
86-9059 86
86-9060 86
86-9061 86
86-9062 86
86-9063 86
86-9064 86
86-9065 86
86-9066 86
86-9067 86
86-9068 86
86-9069 86
86-9070 86
86-9071 86
86-9072 86
86-9073 86
86-9074 86
86-9075 86
86-9076 86
86-9077 86
86-9078 86
86-9079 86
86-9080 86
86-9081 86
86-9082 86
86-9083 86
86-9084 86
86-9085 86
86-9086 86
86-9087 86
86-9088 86
86-9089 86
86-9090 86
86-9091 86
86-9092 86
86-9093 86
86-9094 86
86-9095 86
86-9096 86
86-9097 86
86-9098 86
86-9099 86
86-9100 86
86-9101 86
86-9102 86
86-9103 86
86-9104 86
86-9105 86
86-9106 86
86-9107 86
86-9108 86
86-9109 86
86-9110 86
86-9111 86
86-9112 86
86-9113 86
86-9114 86
86-9115 86
86-9116 86
86-9117 86
86-9118 86
86-9119 86
86-9120 86
86-9121 86
86-9122 86
86-9123 86
86-9124 86
86-9125 86
86-9126 86
86-9127 86
86-9128 86
86-9129 86
91-9429 91
91-9430 91
91-9431 91
91-9432 91
91-9433 91
91-9434 91
91-9435 91
91-9436 91
91-9437 91
91-9438 91
91-9439 91
91-9440 91
91-9441 91
91-9442 91
91-9443 91
91-9444 91
91-9445 91
91-9446 91
91-9447 91
91-9448 91
91-9449 91
91-9450 91
91-9451 91
91-9452 91
91-9453 91
91-9454 91
91-9455 91
91-9456 91
91-9457 91
91-9458 91
91-9459 91
91-9460 91
91-9461 91
91-9462 91
91-9463 91
91-9464 91
91-9465 91
91-9466 91
91-9467 91
91-9468 91
91-9469 91
91-9470 91
91-9471 91
91-9472 91
91-9473 91
91-9474 91
91-9475 91
91-9476 91
91-9477 91
91-9478 91
91-9479 91
91-9480 91
91-9481 91
91-9482 91
91-9483 91
91-9484 91
91-9485 91
91-9486 91
91-9487 91
91-9488 91
91-9489 91
91-9490 91
91-9491 91
91-9492 91
91-9493 91
91-9494 91
91-9495 91
91-9496 91
91-9497 91
91-9498 91
91-9499 91
91-9500 91
91-9501 91
91-9502 91
91-9503 91
91-9504 91
91-9505 91
91-9506 91
91-9507 91
91-9508 91
91-9509 91
91-9510 91
91-9511 91
91-9512 91
91-9513 91
91-9514 91
91-9515 91
91-9516 91
91-9517 91
91-9518 91
91-9519 91
91-9520 91
91-9521 91
91-9522 91
91-9523 91
91-9524 91
91-9525 91
91-9526 91
91-9527 91
91-9528 91
91-9529 91
91-9530 91
91-9531 91
91-9532 91
91-9533 91
91-9534 91
91-9535 91
91-9536 91
91-9537 91
91-9538 91
91-9539 91
91-9540 91
91-9541 91
91-9542 91
91-9543 91
91-9544 91
91-9545 91
91-9546 91
91-9547 91
91-9548 91
91-9549 91
91-9550 91
91-9551 91
91-9552 91
91-9553 91
91-9554 91
91-9555 91
91-9556 91
91-9557 91
91-9558 91
91-9559 91
91-9560 91
91-9561 91
91-9562 91
91-9563 91
91-9564 91
91-9565 91
91-9566 91
91-9567 91
91-9568 91
91-9569 91
91-9570 91
91-9571 91
91-9572 91
91-9573 91
91-9574 91
91-9575 91
91-9576 91
91-9577 91
91-9578 91
91-9579 91
91-9580 91
91-9581 91
91-9582 91
91-9583 91
91-9584 91
91-9585 91
91-9586 91
91-9587 91
92-9588 92
92-9589 92
92-9590 92
92-9591 92
92-9592 92
92-9593 92
92-9594 92
92-9595 92
92-9596 92
92-9597 92
92-9598 92
92-9599 92
92-9600 92
92-9601 92
92-9602 92
92-9603 92
92-9604 92
92-9605 92
92-9606 92
92-9607 92
92-9608 92
92-9609 92
92-9610 92
92-9611 92
92-9612 92
92-9613 92
92-9614 92
92-9615 92
92-9616 92
92-9617 92
92-9618 92
92-9619 92
92-9620 92
92-9621 92
92-9622 92
92-9623 92
92-9624 92
92-9625 92
92-9626 92
92-9627 92
92-9628 92
92-9629 92
92-9630 92
92-9631 92
92-9632 92
92-9633 92
92-9634 92
92-9635 92
92-9636 92
92-9637 92
92-9638 92
92-9639 92
92-9640 92
92-9641 92
92-9642 92
92-9643 92
92-9644 92
92-9645 92
92-9646 92
92-9647 92
92-9648 92
92-9649 92
92-9650 92
92-9651 92
92-9652 92
92-9653 92
92-9654 92
92-9655 92
92-9656 92
92-9657 92
92-9658 92
92-9659 92
92-9660 92
92-9661 92
92-9662 92
92-9663 92
92-9664 92
92-9665 92
92-9666 92
92-9667 92
92-9668 92
92-9669 92
92-9670 92
92-9671 92
92-9672 92
92-9673 92
92-9674 92
92-9675 92
92-9676 92
92-9677 92
95-9786 95
95-9787 95
95-9788 95
95-9789 95
95-9790 95
95-9791 95
95-9792 95
95-9793 95
95-9794 95
95-9795 95
95-9796 95
95-9797 95
95-9798 95
95-9799 95
95-9800 95
95-9801 95
95-9802 95
95-9803 95
95-9804 95
95-9805 95
95-9806 95
95-9807 95
95-9808 95
95-9809 95
95-9810 95
95-9811 95
95-9812 95
95-9813 95
95-9814 95
95-9815 95
95-9816 95
95-9817 95
95-9818 95
95-9819 95
95-9820 95
95-9821 95
95-9822 95
95-9823 95
95-9824 95
95-9825 95
95-9826 95
95-9827 95
95-9828 95
95-9829 95
95-9830 95
95-9831 95
95-9832 95
95-9833 95
95-9834 95
95-9835 95
95-9836 95
95-9837 95
95-9838 95
95-9839 95
95-9840 95
95-9841 95
95-9842 95
95-9843 95
95-9844 95
95-9845 95
95-9846 95
95-9847 95
95-9848 95
95-9849 95
95-9850 95
95-9851 95
95-9852 95
95-9853 95
95-9855 95
98-9982 98
98-9983 98
98-9984 98
98-9985 98
98-9986 98
98-9987 98
98-9988 98
98-9989 98
98-9990 98
98-9991 98
98-9993 98
99-10000 99
99-10001 99
99-10002 99
99-10003 99
99-10004 99
99-10005 99
99-10006 99
99-10007 99
99-10008 99
99-10009 99
99-10010 99
99-10011 99
99-10012 99
99-10013 99
99-10014 99
99-10015 99
99-10016 99
99-10017 99
99-10018 99
99-10019 99
99-10020 99
99-10021 99
99-10022 99
99-10023 99
99-10024 99
99-10025 99
99-10026 99
99-10027 99
99-10028 99
99-10029 99
99-10030 99
99-10031 99
99-10032 99
99-10033 99
99-10034 99
99-10035 99
99-10036 99
99-10037 99
99-10038 99
99-10039 99
99-10040 99
99-10041 99
99-10042 99
99-10043 99
99-10044 99
99-10045 99
99-10046 99
99-10047 99
99-10048 99
99-10049 99
99-10050 99
99-10051 99
99-10052 99
99-10053 99
99-10054 99
99-10055 99
99-10056 99
99-10057 99
99-10058 99
99-10059 99
99-10060 99
99-10061 99
99-10062 99
99-10063 99
99-10064 99
99-10065 99
99-10066 99
99-10067 99
99-10068 99
99-10069 99
99-10070 99
99-10071 99
99-10072 99
99-10073 99
99-10074 99
99-10075 99
99-10076 99
99-10077 99
99-10078 99
99-10079 99
99-10080 99
99-10081 99
99-10082 99
99-10083 99
99-10084 99
99-10085 99
99-10086 99
99-10087 99
99-10088 99
99-10089 99
99-10090 99
99-9992 99
99-9994 99
99-9995 99
99-9996 99
99-9997 99
99-9998 99
99-9999 99
